\ LP format - for model browsing. Use MPS format to capture full model detail.
Minimize
  C0 + 3 C1 + C2 + C3 + 2 C4 + 2 C5 + 3 C6 + 3 C7 + C8 + 2 C9 + 0.9 C10
   + 0.7 C11 + 0.6 C12 + 0.6 C13 + 0.8 C14 + C15 + 0.7 C16 + 0.6 C17
   + 0.9 C18 + C19 + C20 + 0.6 C21 + 0.6 C22 + 0.5 C23 + 0.8 C24 + 0.9 C25
   + 0.7 C26 + 0.6 C27 + 0.6 C28 + 0.8 C29 + C30 + 0.7 C31 + 0.6 C32
   + 0.9 C33 + C34 + C35 + 0.6 C36 + 0.6 C37 + 0.5 C38 + 0.8 C39 + 0.9 C40
   + 0.7 C41 + 0.6 C42 + 0.6 C43 + 0.8 C44 + C45 + 0.7 C46 + 0.6 C47
   + 0.9 C48 + C49 + C50 + 0.6 C51 + 0.6 C52 + 0.5 C53 + 0.8 C54 + 0.9 C55
   + 0.7 C56 + 0.6 C57 + 0.6 C58 + 0.8 C59 + C60 + 0.7 C61 + 0.6 C62
   + 0.9 C63 + C64 + C65 + 0.6 C66 + 0.6 C67 + 0.5 C68 + 0.8 C69 + 0.9 C70
   + 0.7 C71 + 0.6 C72 + 0.6 C73 + 0.8 C74 + C75 + 0.7 C76 + 0.6 C77
   + 0.9 C78 + C79 + C80 + 0.6 C81 + 0.6 C82 + 0.5 C83 + 0.8 C84 + 0.9 C85
   + 0.7 C86 + 0.6 C87 + 0.6 C88 + 0.8 C89 + C90 + 0.7 C91 + 0.6 C92
   + 0.9 C93 + C94 + C95 + 0.6 C96 + 0.6 C97 + 0.5 C98 + 0.8 C99 + 0.9 C100
   + 0.7 C101 + 0.6 C102 + 0.6 C103 + 0.8 C104 + C105 + 0.7 C106 + 0.6 C107
   + 0.9 C108 + C109 + C110 + 0.6 C111 + 0.6 C112 + 0.5 C113 + 0.8 C114
   + 0.9 C115 + 0.7 C116 + 0.6 C117 + 0.6 C118 + 0.8 C119 + C120 + 0.7 C121
   + 0.6 C122 + 0.9 C123 + C124 + C125 + 0.6 C126 + 0.6 C127 + 0.5 C128
   + 0.8 C129 + 0.9 C130 + 0.7 C131 + 0.6 C132 + 0.6 C133 + 0.8 C134 + C135
   + 0.7 C136 + 0.6 C137 + 0.9 C138 + C139 + C140 + 0.6 C141 + 0.6 C142
   + 0.5 C143 + 0.8 C144 + 0.9 C145 + 0.7 C146 + 0.6 C147 + 0.6 C148
   + 0.8 C149 + C150 + 0.7 C151 + 0.6 C152 + 0.9 C153 + C154 + C155
   + 0.6 C156 + 0.6 C157 + 0.5 C158 + 0.8 C159
Subject To
 R0: 2 C0 + 3 C1 + C2 + 4 C3 + 2 C4 + 3 C5 + 4 C6 + 3 C7 + C8 + C9 <= 5
 R1: C0 + 3 C1 + 2 C2 + C3 + C4 + 4 C5 + 3 C6 + 4 C7 + 3 C8 + 4 C9 <= 4
 R2: 4 C0 + 2 C1 + C2 + 2 C3 + 2 C4 + 2 C5 + C6 + 2 C7 + 2 C8 + 3 C9 <= 5
 R3: 3 C0 + C1 + 2 C2 + 3 C3 + 3 C4 + 3 C5 + 3 C6 + 4 C7 + 2 C8 + C9 <= 4
 R4: 3 C0 + C1 + 3 C2 + 2 C3 + C4 + C5 + 2 C6 + 3 C7 + 2 C8 + 2 C9 + C10
   + 2 C11 + 3 C12 + C13 + 3 C14 + C15 + C16 + C17 + C18 + 3 C19 + 3 C20
   + 3 C21 + 3 C22 + C23 + 2 C24 >= 9.568511783901361
 R5: C0 + 2 C1 + 3 C2 + 3 C3 + 2 C4 + 3 C5 + 3 C6 + C7 + 3 C8 + C9 + 3 C10
   + 3 C11 + 2 C12 + 3 C13 + 3 C14 + C15 + C16 + 3 C17 + C18 + C19 + 2 C20
   + C21 + 2 C22 + 2 C23 + 3 C24 >= 8.887754885809969
 R6: 2 C0 + 2 C1 + 3 C2 + C3 + 3 C4 + C5 + 3 C6 + C7 + C8 + C9 + 3 C10
   + C11 + C12 + 3 C13 + 2 C14 + C15 + C16 + C17 + C18 + 2 C19 + 2 C20
   + 3 C21 + 3 C22 + 2 C23 + 2 C24 >= 10.53996530596904
 R7: 2 C0 + 3 C1 + 3 C2 + 3 C3 + 2 C4 + C5 + 3 C6 + C7 + 3 C8 + 2 C9 + C10
   + 3 C11 + 2 C12 + C13 + 2 C14 + 2 C15 + 2 C16 + C17 + 2 C18 + 2 C19
   + C20 + 2 C21 + 3 C22 + 2 C23 + C24 >= 10.76501680442276
 R8: 3 C0 + C1 + C2 + C3 + C4 + 3 C5 + C6 + 2 C7 + 2 C8 + 3 C9 + 2 C10
   + 3 C11 + C12 + 2 C13 + C14 + 3 C15 + C16 + 2 C17 + 3 C18 + 3 C19
   + 2 C20 + 3 C21 + 3 C22 + 3 C23 + C24 >= 10.66968609638913
 R9: 3 C0 + 3 C1 + C2 + C3 + 2 C4 + C5 + 2 C6 + 3 C7 + 3 C8 + 2 C9 + C10
   + 3 C11 + C12 + 3 C13 + 2 C14 + C15 + C16 + 3 C17 + C18 + C19 + C20
   + C21 + 2 C22 + 2 C23 + 3 C24 >= 9.624094616820255
 R10: 3 C0 + 2 C1 + C2 + 2 C3 + C4 + 3 C5 + 2 C6 + 3 C7 + 3 C8 + 3 C9
   + 3 C10 + 2 C11 + C12 + 2 C13 + 3 C14 + 2 C15 + 2 C16 + C17 + 3 C18
   + 2 C19 + 2 C20 + C21 + C22 + 2 C23 + C24 >= 10.48655651148801
 R11: 2 C0 + C1 + C2 + 2 C3 + C4 + C5 + 3 C6 + 3 C7 + 3 C8 + C9 + 2 C10
   + 3 C11 + 2 C12 + 3 C13 + 2 C14 + 2 C15 + C16 + 3 C17 + 2 C18 + C19
   + 3 C20 + 3 C21 + C22 + C23 + 3 C24 >= 10.97772135805373
 R12: 3 C0 + C1 + 3 C2 + 2 C3 + C4 + C5 + 2 C6 + 3 C7 + 2 C8 + 2 C9 + C25
   + 2 C26 + 3 C27 + C28 + 3 C29 + C30 + C31 + C32 + C33 + 3 C34 + 3 C35
   + 3 C36 + 3 C37 + C38 + 2 C39 >= 9.87548948322169
 R13: C0 + 2 C1 + 3 C2 + 3 C3 + 2 C4 + 3 C5 + 3 C6 + C7 + 3 C8 + C9 + 3 C25
   + 3 C26 + 2 C27 + 3 C28 + 3 C29 + C30 + C31 + 3 C32 + C33 + C34 + 2 C35
   + C36 + 2 C37 + 2 C38 + 3 C39 >= 9.375880056976422
 R14: 2 C0 + 2 C1 + 3 C2 + C3 + 3 C4 + C5 + 3 C6 + C7 + C8 + C9 + 3 C25
   + C26 + C27 + 3 C28 + 2 C29 + C30 + C31 + C32 + C33 + 2 C34 + 2 C35
   + 3 C36 + 3 C37 + 2 C38 + 2 C39 >= 11.53457438034239
 R15: 2 C0 + 3 C1 + 3 C2 + 3 C3 + 2 C4 + C5 + 3 C6 + C7 + 3 C8 + 2 C9 + C25
   + 3 C26 + 2 C27 + C28 + 2 C29 + 2 C30 + 2 C31 + C32 + 2 C33 + 2 C34
   + C35 + 2 C36 + 3 C37 + 2 C38 + C39 >= 8.315422990912163
 R16: 3 C0 + C1 + C2 + C3 + C4 + 3 C5 + C6 + 2 C7 + 2 C8 + 3 C9 + 2 C25
   + 3 C26 + C27 + 2 C28 + C29 + 3 C30 + C31 + 2 C32 + 3 C33 + 3 C34
   + 2 C35 + 3 C36 + 3 C37 + 3 C38 + C39 >= 10.11025559612739
 R17: 3 C0 + 3 C1 + C2 + C3 + 2 C4 + C5 + 2 C6 + 3 C7 + 3 C8 + 2 C9 + C25
   + 3 C26 + C27 + 3 C28 + 2 C29 + C30 + C31 + 3 C32 + C33 + C34 + C35
   + C36 + 2 C37 + 2 C38 + 3 C39 >= 10.55109760771808
 R18: 3 C0 + 2 C1 + C2 + 2 C3 + C4 + 3 C5 + 2 C6 + 3 C7 + 3 C8 + 3 C9
   + 3 C25 + 2 C26 + C27 + 2 C28 + 3 C29 + 2 C30 + 2 C31 + C32 + 3 C33
   + 2 C34 + 2 C35 + C36 + C37 + 2 C38 + C39 >= 10.31747267853314
 R19: 2 C0 + C1 + C2 + 2 C3 + C4 + C5 + 3 C6 + 3 C7 + 3 C8 + C9 + 2 C25
   + 3 C26 + 2 C27 + 3 C28 + 2 C29 + 2 C30 + C31 + 3 C32 + 2 C33 + C34
   + 3 C35 + 3 C36 + C37 + C38 + 3 C39 >= 11.16378848025843
 R20: 3 C0 + C1 + 3 C2 + 2 C3 + C4 + C5 + 2 C6 + 3 C7 + 2 C8 + 2 C9 + C40
   + 2 C41 + 3 C42 + C43 + 3 C44 + C45 + C46 + C47 + C48 + 3 C49 + 3 C50
   + 3 C51 + 3 C52 + C53 + 2 C54 >= 9.390887977872108
 R21: C0 + 2 C1 + 3 C2 + 3 C3 + 2 C4 + 3 C5 + 3 C6 + C7 + 3 C8 + C9 + 3 C40
   + 3 C41 + 2 C42 + 3 C43 + 3 C44 + C45 + C46 + 3 C47 + C48 + C49 + 2 C50
   + C51 + 2 C52 + 2 C53 + 3 C54 >= 11.32814062521616
 R22: 2 C0 + 2 C1 + 3 C2 + C3 + 3 C4 + C5 + 3 C6 + C7 + C8 + C9 + 3 C40
   + C41 + C42 + 3 C43 + 2 C44 + C45 + C46 + C47 + C48 + 2 C49 + 2 C50
   + 3 C51 + 3 C52 + 2 C53 + 2 C54 >= 8.707259719407439
 R23: 2 C0 + 3 C1 + 3 C2 + 3 C3 + 2 C4 + C5 + 3 C6 + C7 + 3 C8 + 2 C9 + C40
   + 3 C41 + 2 C42 + C43 + 2 C44 + 2 C45 + 2 C46 + C47 + 2 C48 + 2 C49
   + C50 + 2 C51 + 3 C52 + 2 C53 + C54 >= 9.623582105806582
 R24: 3 C0 + C1 + C2 + C3 + C4 + 3 C5 + C6 + 2 C7 + 2 C8 + 3 C9 + 2 C40
   + 3 C41 + C42 + 2 C43 + C44 + 3 C45 + C46 + 2 C47 + 3 C48 + 3 C49
   + 2 C50 + 3 C51 + 3 C52 + 3 C53 + C54 >= 11.65072580127392
 R25: 3 C0 + 3 C1 + C2 + C3 + 2 C4 + C5 + 2 C6 + 3 C7 + 3 C8 + 2 C9 + C40
   + 3 C41 + C42 + 3 C43 + 2 C44 + C45 + C46 + 3 C47 + C48 + C49 + C50
   + C51 + 2 C52 + 2 C53 + 3 C54 >= 10.31975531250035
 R26: 3 C0 + 2 C1 + C2 + 2 C3 + C4 + 3 C5 + 2 C6 + 3 C7 + 3 C8 + 3 C9
   + 3 C40 + 2 C41 + C42 + 2 C43 + 3 C44 + 2 C45 + 2 C46 + C47 + 3 C48
   + 2 C49 + 2 C50 + C51 + C52 + 2 C53 + C54 >= 11.00563157053668
 R27: 2 C0 + C1 + C2 + 2 C3 + C4 + C5 + 3 C6 + 3 C7 + 3 C8 + C9 + 2 C40
   + 3 C41 + 2 C42 + 3 C43 + 2 C44 + 2 C45 + C46 + 3 C47 + 2 C48 + C49
   + 3 C50 + 3 C51 + C52 + C53 + 3 C54 >= 9.300359166103933
 R28: 3 C0 + C1 + 3 C2 + 2 C3 + C4 + C5 + 2 C6 + 3 C7 + 2 C8 + 2 C9 + C55
   + 2 C56 + 3 C57 + C58 + 3 C59 + C60 + C61 + C62 + C63 + 3 C64 + 3 C65
   + 3 C66 + 3 C67 + C68 + 2 C69 >= 8.061911753583427
 R29: C0 + 2 C1 + 3 C2 + 3 C3 + 2 C4 + 3 C5 + 3 C6 + C7 + 3 C8 + C9 + 3 C55
   + 3 C56 + 2 C57 + 3 C58 + 3 C59 + C60 + C61 + 3 C62 + C63 + C64 + 2 C65
   + C66 + 2 C67 + 2 C68 + 3 C69 >= 10.9241771186827
 R30: 2 C0 + 2 C1 + 3 C2 + C3 + 3 C4 + C5 + 3 C6 + C7 + C8 + C9 + 3 C55
   + C56 + C57 + 3 C58 + 2 C59 + C60 + C61 + C62 + C63 + 2 C64 + 2 C65
   + 3 C66 + 3 C67 + 2 C68 + 2 C69 >= 10.24806303398954
 R31: 2 C0 + 3 C1 + 3 C2 + 3 C3 + 2 C4 + C5 + 3 C6 + C7 + 3 C8 + 2 C9 + C55
   + 3 C56 + 2 C57 + C58 + 2 C59 + 2 C60 + 2 C61 + C62 + 2 C63 + 2 C64
   + C65 + 2 C66 + 3 C67 + 2 C68 + C69 >= 11.43927451745042
 R32: 3 C0 + C1 + C2 + C3 + C4 + 3 C5 + C6 + 2 C7 + 2 C8 + 3 C9 + 2 C55
   + 3 C56 + C57 + 2 C58 + C59 + 3 C60 + C61 + 2 C62 + 3 C63 + 3 C64
   + 2 C65 + 3 C66 + 3 C67 + 3 C68 + C69 >= 10.37401410185814
 R33: 3 C0 + 3 C1 + C2 + C3 + 2 C4 + C5 + 2 C6 + 3 C7 + 3 C8 + 2 C9 + C55
   + 3 C56 + C57 + 3 C58 + 2 C59 + C60 + C61 + 3 C62 + C63 + C64 + C65
   + C66 + 2 C67 + 2 C68 + 3 C69 >= 10.07502339331534
 R34: 3 C0 + 2 C1 + C2 + 2 C3 + C4 + 3 C5 + 2 C6 + 3 C7 + 3 C8 + 3 C9
   + 3 C55 + 2 C56 + C57 + 2 C58 + 3 C59 + 2 C60 + 2 C61 + C62 + 3 C63
   + 2 C64 + 2 C65 + C66 + C67 + 2 C68 + C69 >= 11.52582169454276
 R35: 2 C0 + C1 + C2 + 2 C3 + C4 + C5 + 3 C6 + 3 C7 + 3 C8 + C9 + 2 C55
   + 3 C56 + 2 C57 + 3 C58 + 2 C59 + 2 C60 + C61 + 3 C62 + 2 C63 + C64
   + 3 C65 + 3 C66 + C67 + C68 + 3 C69 >= 10.69388942388914
 R36: 3 C0 + C1 + 3 C2 + 2 C3 + C4 + C5 + 2 C6 + 3 C7 + 2 C8 + 2 C9 + C70
   + 2 C71 + 3 C72 + C73 + 3 C74 + C75 + C76 + C77 + C78 + 3 C79 + 3 C80
   + 3 C81 + 3 C82 + C83 + 2 C84 >= 9.765993848838459
 R37: C0 + 2 C1 + 3 C2 + 3 C3 + 2 C4 + 3 C5 + 3 C6 + C7 + 3 C8 + C9 + 3 C70
   + 3 C71 + 2 C72 + 3 C73 + 3 C74 + C75 + C76 + 3 C77 + C78 + C79 + 2 C80
   + C81 + 2 C82 + 2 C83 + 3 C84 >= 9.400796980396871
 R38: 2 C0 + 2 C1 + 3 C2 + C3 + 3 C4 + C5 + 3 C6 + C7 + C8 + C9 + 3 C70
   + C71 + C72 + 3 C73 + 2 C74 + C75 + C76 + C77 + C78 + 2 C79 + 2 C80
   + 3 C81 + 3 C82 + 2 C83 + 2 C84 >= 10.19457763376337
 R39: 2 C0 + 3 C1 + 3 C2 + 3 C3 + 2 C4 + C5 + 3 C6 + C7 + 3 C8 + 2 C9 + C70
   + 3 C71 + 2 C72 + C73 + 2 C74 + 2 C75 + 2 C76 + C77 + 2 C78 + 2 C79
   + C80 + 2 C81 + 3 C82 + 2 C83 + C84 >= 9.319840047252612
 R40: 3 C0 + C1 + C2 + C3 + C4 + 3 C5 + C6 + 2 C7 + 2 C8 + 3 C9 + 2 C70
   + 3 C71 + C72 + 2 C73 + C74 + 3 C75 + C76 + 2 C77 + 3 C78 + 3 C79
   + 2 C80 + 3 C81 + 3 C82 + 3 C83 + C84 >= 9.751393752407635
 R41: 3 C0 + 3 C1 + C2 + C3 + 2 C4 + C5 + 2 C6 + 3 C7 + 3 C8 + 2 C9 + C70
   + 3 C71 + C72 + 3 C73 + 2 C74 + C75 + C76 + 3 C77 + C78 + C79 + C80
   + C81 + 2 C82 + 2 C83 + 3 C84 >= 9.963556571120183
 R42: 3 C0 + 2 C1 + C2 + 2 C3 + C4 + 3 C5 + 2 C6 + 3 C7 + 3 C8 + 3 C9
   + 3 C70 + 2 C71 + C72 + 2 C73 + 3 C74 + 2 C75 + 2 C76 + C77 + 3 C78
   + 2 C79 + 2 C80 + C81 + C82 + 2 C83 + C84 >= 11.12248699936267
 R43: 2 C0 + C1 + C2 + 2 C3 + C4 + C5 + 3 C6 + 3 C7 + 3 C8 + C9 + 2 C70
   + 3 C71 + 2 C72 + 3 C73 + 2 C74 + 2 C75 + C76 + 3 C77 + 2 C78 + C79
   + 3 C80 + 3 C81 + C82 + C83 + 3 C84 >= 10.51334176727662
 R44: 3 C0 + C1 + 3 C2 + 2 C3 + C4 + C5 + 2 C6 + 3 C7 + 2 C8 + 2 C9 + C85
   + 2 C86 + 3 C87 + C88 + 3 C89 + C90 + C91 + C92 + C93 + 3 C94 + 3 C95
   + 3 C96 + 3 C97 + C98 + 2 C99 >= 11.48157984739857
 R45: C0 + 2 C1 + 3 C2 + 3 C3 + 2 C4 + 3 C5 + 3 C6 + C7 + 3 C8 + C9 + 3 C85
   + 3 C86 + 2 C87 + 3 C88 + 3 C89 + C90 + C91 + 3 C92 + C93 + C94 + 2 C95
   + C96 + 2 C97 + 2 C98 + 3 C99 >= 11.44080409324806
 R46: 2 C0 + 2 C1 + 3 C2 + C3 + 3 C4 + C5 + 3 C6 + C7 + C8 + C9 + 3 C85
   + C86 + C87 + 3 C88 + 2 C89 + C90 + C91 + C92 + C93 + 2 C94 + 2 C95
   + 3 C96 + 3 C97 + 2 C98 + 2 C99 >= 10.47317453811035
 R47: 2 C0 + 3 C1 + 3 C2 + 3 C3 + 2 C4 + C5 + 3 C6 + C7 + 3 C8 + 2 C9 + C85
   + 3 C86 + 2 C87 + C88 + 2 C89 + 2 C90 + 2 C91 + C92 + 2 C93 + 2 C94
   + C95 + 2 C96 + 3 C97 + 2 C98 + C99 >= 8.300104734597269
 R48: 3 C0 + C1 + C2 + C3 + C4 + 3 C5 + C6 + 2 C7 + 2 C8 + 3 C9 + 2 C85
   + 3 C86 + C87 + 2 C88 + C89 + 3 C90 + C91 + 2 C92 + 3 C93 + 3 C94
   + 2 C95 + 3 C96 + 3 C97 + 3 C98 + C99 >= 9.282129382932009
 R49: 3 C0 + 3 C1 + C2 + C3 + 2 C4 + C5 + 2 C6 + 3 C7 + 3 C8 + 2 C9 + C85
   + 3 C86 + C87 + 3 C88 + 2 C89 + C90 + C91 + 3 C92 + C93 + C94 + C95
   + C96 + 2 C97 + 2 C98 + 3 C99 >= 10.04368031597925
 R50: 3 C0 + 2 C1 + C2 + 2 C3 + C4 + 3 C5 + 2 C6 + 3 C7 + 3 C8 + 3 C9
   + 3 C85 + 2 C86 + C87 + 2 C88 + 3 C89 + 2 C90 + 2 C91 + C92 + 3 C93
   + 2 C94 + 2 C95 + C96 + C97 + 2 C98 + C99 >= 9.574680098442746
 R51: 2 C0 + C1 + C2 + 2 C3 + C4 + C5 + 3 C6 + 3 C7 + 3 C8 + C9 + 2 C85
   + 3 C86 + 2 C87 + 3 C88 + 2 C89 + 2 C90 + C91 + 3 C92 + 2 C93 + C94
   + 3 C95 + 3 C96 + C97 + C98 + 3 C99 >= 8.719156409506134
 R52: 3 C0 + C1 + 3 C2 + 2 C3 + C4 + C5 + 2 C6 + 3 C7 + 2 C8 + 2 C9 + C100
   + 2 C101 + 3 C102 + C103 + 3 C104 + C105 + C106 + C107 + C108 + 3 C109
   + 3 C110 + 3 C111 + 3 C112 + C113 + 2 C114 >= 10.02474240817303
 R53: C0 + 2 C1 + 3 C2 + 3 C3 + 2 C4 + 3 C5 + 3 C6 + C7 + 3 C8 + C9
   + 3 C100 + 3 C101 + 2 C102 + 3 C103 + 3 C104 + C105 + C106 + 3 C107
   + C108 + C109 + 2 C110 + C111 + 2 C112 + 2 C113 + 3 C114
   >= 11.86418410424429
 R54: 2 C0 + 2 C1 + 3 C2 + C3 + 3 C4 + C5 + 3 C6 + C7 + C8 + C9 + 3 C100
   + C101 + C102 + 3 C103 + 2 C104 + C105 + C106 + C107 + C108 + 2 C109
   + 2 C110 + 3 C111 + 3 C112 + 2 C113 + 2 C114 >= 9.949279648563724
 R55: 2 C0 + 3 C1 + 3 C2 + 3 C3 + 2 C4 + C5 + 3 C6 + C7 + 3 C8 + 2 C9
   + C100 + 3 C101 + 2 C102 + C103 + 2 C104 + 2 C105 + 2 C106 + C107
   + 2 C108 + 2 C109 + C110 + 2 C111 + 3 C112 + 2 C113 + C114
   >= 9.61147382628798
 R56: 3 C0 + C1 + C2 + C3 + C4 + 3 C5 + C6 + 2 C7 + 2 C8 + 3 C9 + 2 C100
   + 3 C101 + C102 + 2 C103 + C104 + 3 C105 + C106 + 2 C107 + 3 C108
   + 3 C109 + 2 C110 + 3 C111 + 3 C112 + 3 C113 + C114
   >= 9.394798651043184
 R57: 3 C0 + 3 C1 + C2 + C3 + 2 C4 + C5 + 2 C6 + 3 C7 + 3 C8 + 2 C9 + C100
   + 3 C101 + C102 + 3 C103 + 2 C104 + C105 + C106 + 3 C107 + C108 + C109
   + C110 + C111 + 2 C112 + 2 C113 + 3 C114 >= 8.815485803458044
 R58: 3 C0 + 2 C1 + C2 + 2 C3 + C4 + 3 C5 + 2 C6 + 3 C7 + 3 C8 + 3 C9
   + 3 C100 + 2 C101 + C102 + 2 C103 + 3 C104 + 2 C105 + 2 C106 + C107
   + 3 C108 + 2 C109 + 2 C110 + C111 + C112 + 2 C113 + C114
   >= 10.50374242779285
 R59: 2 C0 + C1 + C2 + 2 C3 + C4 + C5 + 3 C6 + 3 C7 + 3 C8 + C9 + 2 C100
   + 3 C101 + 2 C102 + 3 C103 + 2 C104 + 2 C105 + C106 + 3 C107 + 2 C108
   + C109 + 3 C110 + 3 C111 + C112 + C113 + 3 C114 >= 8.899769139758098
 R60: 3 C0 + C1 + 3 C2 + 2 C3 + C4 + C5 + 2 C6 + 3 C7 + 2 C8 + 2 C9 + C115
   + 2 C116 + 3 C117 + C118 + 3 C119 + C120 + C121 + C122 + C123 + 3 C124
   + 3 C125 + 3 C126 + 3 C127 + C128 + 2 C129 >= 9.5340509739202
 R61: C0 + 2 C1 + 3 C2 + 3 C3 + 2 C4 + 3 C5 + 3 C6 + C7 + 3 C8 + C9
   + 3 C115 + 3 C116 + 2 C117 + 3 C118 + 3 C119 + C120 + C121 + 3 C122
   + C123 + C124 + 2 C125 + C126 + 2 C127 + 2 C128 + 3 C129
   >= 9.459178399235038
 R62: 2 C0 + 2 C1 + 3 C2 + C3 + 3 C4 + C5 + 3 C6 + C7 + C8 + C9 + 3 C115
   + C116 + C117 + 3 C118 + 2 C119 + C120 + C121 + C122 + C123 + 2 C124
   + 2 C125 + 3 C126 + 3 C127 + 2 C128 + 2 C129 >= 9.882409957107233
 R63: 2 C0 + 3 C1 + 3 C2 + 3 C3 + 2 C4 + C5 + 3 C6 + C7 + 3 C8 + 2 C9
   + C115 + 3 C116 + 2 C117 + C118 + 2 C119 + 2 C120 + 2 C121 + C122
   + 2 C123 + 2 C124 + C125 + 2 C126 + 3 C127 + 2 C128 + C129
   >= 10.97298661015716
 R64: 3 C0 + C1 + C2 + C3 + C4 + 3 C5 + C6 + 2 C7 + 2 C8 + 3 C9 + 2 C115
   + 3 C116 + C117 + 2 C118 + C119 + 3 C120 + C121 + 2 C122 + 3 C123
   + 3 C124 + 2 C125 + 3 C126 + 3 C127 + 3 C128 + C129
   >= 10.86894076407868
 R65: 3 C0 + 3 C1 + C2 + C3 + 2 C4 + C5 + 2 C6 + 3 C7 + 3 C8 + 2 C9 + C115
   + 3 C116 + C117 + 3 C118 + 2 C119 + C120 + C121 + 3 C122 + C123 + C124
   + C125 + C126 + 2 C127 + 2 C128 + 3 C129 >= 10.59636889610073
 R66: 3 C0 + 2 C1 + C2 + 2 C3 + C4 + 3 C5 + 2 C6 + 3 C7 + 3 C8 + 3 C9
   + 3 C115 + 2 C116 + C117 + 2 C118 + 3 C119 + 2 C120 + 2 C121 + C122
   + 3 C123 + 2 C124 + 2 C125 + C126 + C127 + 2 C128 + C129
   >= 10.51072306138315
 R67: 2 C0 + C1 + C2 + 2 C3 + C4 + C5 + 3 C6 + 3 C7 + 3 C8 + C9 + 2 C115
   + 3 C116 + 2 C117 + 3 C118 + 2 C119 + 2 C120 + C121 + 3 C122 + 2 C123
   + C124 + 3 C125 + 3 C126 + C127 + C128 + 3 C129 >= 9.221406248794633
 R68: 3 C0 + C1 + 3 C2 + 2 C3 + C4 + C5 + 2 C6 + 3 C7 + 2 C8 + 2 C9 + C130
   + 2 C131 + 3 C132 + C133 + 3 C134 + C135 + C136 + C137 + C138 + 3 C139
   + 3 C140 + 3 C141 + 3 C142 + C143 + 2 C144 >= 11.25171696474868
 R69: C0 + 2 C1 + 3 C2 + 3 C3 + 2 C4 + 3 C5 + 3 C6 + C7 + 3 C8 + C9
   + 3 C130 + 3 C131 + 2 C132 + 3 C133 + 3 C134 + C135 + C136 + 3 C137
   + C138 + C139 + 2 C140 + C141 + 2 C142 + 2 C143 + 3 C144
   >= 9.731301558255906
 R70: 2 C0 + 2 C1 + 3 C2 + C3 + 3 C4 + C5 + 3 C6 + C7 + C8 + C9 + 3 C130
   + C131 + C132 + 3 C133 + 2 C134 + C135 + C136 + C137 + C138 + 2 C139
   + 2 C140 + 3 C141 + 3 C142 + 2 C143 + 2 C144 >= 9.406043115211169
 R71: 2 C0 + 3 C1 + 3 C2 + 3 C3 + 2 C4 + C5 + 3 C6 + C7 + 3 C8 + 2 C9
   + C130 + 3 C131 + 2 C132 + C133 + 2 C134 + 2 C135 + 2 C136 + C137
   + 2 C138 + 2 C139 + C140 + 2 C141 + 3 C142 + 2 C143 + C144
   >= 8.579108698370083
 R72: 3 C0 + C1 + C2 + C3 + C4 + 3 C5 + C6 + 2 C7 + 2 C8 + 3 C9 + 2 C130
   + 3 C131 + C132 + 2 C133 + C134 + 3 C135 + C136 + 2 C137 + 3 C138
   + 3 C139 + 2 C140 + 3 C141 + 3 C142 + 3 C143 + C144
   >= 10.44176990194173
 R73: 3 C0 + 3 C1 + C2 + C3 + 2 C4 + C5 + 2 C6 + 3 C7 + 3 C8 + 2 C9 + C130
   + 3 C131 + C132 + 3 C133 + 2 C134 + C135 + C136 + 3 C137 + C138 + C139
   + C140 + C141 + 2 C142 + 2 C143 + 3 C144 >= 11.78740659919789
 R74: 3 C0 + 2 C1 + C2 + 2 C3 + C4 + 3 C5 + 2 C6 + 3 C7 + 3 C8 + 3 C9
   + 3 C130 + 2 C131 + C132 + 2 C133 + 3 C134 + 2 C135 + 2 C136 + C137
   + 3 C138 + 2 C139 + 2 C140 + C141 + C142 + 2 C143 + C144
   >= 9.354356480343359
 R75: 2 C0 + C1 + C2 + 2 C3 + C4 + C5 + 3 C6 + 3 C7 + 3 C8 + C9 + 2 C130
   + 3 C131 + 2 C132 + 3 C133 + 2 C134 + 2 C135 + C136 + 3 C137 + 2 C138
   + C139 + 3 C140 + 3 C141 + C142 + C143 + 3 C144 >= 9.697779634721631
 R76: 3 C0 + C1 + 3 C2 + 2 C3 + C4 + C5 + 2 C6 + 3 C7 + 2 C8 + 2 C9 + C145
   + 2 C146 + 3 C147 + C148 + 3 C149 + C150 + C151 + C152 + C153 + 3 C154
   + 3 C155 + 3 C156 + 3 C157 + C158 + 2 C159 >= 10.19102156437889
 R77: C0 + 2 C1 + 3 C2 + 3 C3 + 2 C4 + 3 C5 + 3 C6 + C7 + 3 C8 + C9
   + 3 C145 + 3 C146 + 2 C147 + 3 C148 + 3 C149 + C150 + C151 + 3 C152
   + C153 + C154 + 2 C155 + C156 + 2 C157 + 2 C158 + 3 C159
   >= 10.34503766437685
 R78: 2 C0 + 2 C1 + 3 C2 + C3 + 3 C4 + C5 + 3 C6 + C7 + C8 + C9 + 3 C145
   + C146 + C147 + 3 C148 + 2 C149 + C150 + C151 + C152 + C153 + 2 C154
   + 2 C155 + 3 C156 + 3 C157 + 2 C158 + 2 C159 >= 10.35762493288126
 R79: 2 C0 + 3 C1 + 3 C2 + 3 C3 + 2 C4 + C5 + 3 C6 + C7 + 3 C8 + 2 C9
   + C145 + 3 C146 + 2 C147 + C148 + 2 C149 + 2 C150 + 2 C151 + C152
   + 2 C153 + 2 C154 + C155 + 2 C156 + 3 C157 + 2 C158 + C159
   >= 8.478667411468695
 R80: 3 C0 + C1 + C2 + C3 + C4 + 3 C5 + C6 + 2 C7 + 2 C8 + 3 C9 + 2 C145
   + 3 C146 + C147 + 2 C148 + C149 + 3 C150 + C151 + 2 C152 + 3 C153
   + 3 C154 + 2 C155 + 3 C156 + 3 C157 + 3 C158 + C159 >= 10.3949197073249
 R81: 3 C0 + 3 C1 + C2 + C3 + 2 C4 + C5 + 2 C6 + 3 C7 + 3 C8 + 2 C9 + C145
   + 3 C146 + C147 + 3 C148 + 2 C149 + C150 + C151 + 3 C152 + C153 + C154
   + C155 + C156 + 2 C157 + 2 C158 + 3 C159 >= 10.46948294173625
 R82: 3 C0 + 2 C1 + C2 + 2 C3 + C4 + 3 C5 + 2 C6 + 3 C7 + 3 C8 + 3 C9
   + 3 C145 + 2 C146 + C147 + 2 C148 + 3 C149 + 2 C150 + 2 C151 + C152
   + 3 C153 + 2 C154 + 2 C155 + C156 + C157 + 2 C158 + C159
   >= 11.17982064552283
 R83: 2 C0 + C1 + C2 + 2 C3 + C4 + C5 + 3 C6 + 3 C7 + 3 C8 + C9 + 2 C145
   + 3 C146 + 2 C147 + 3 C148 + 2 C149 + 2 C150 + C151 + 3 C152 + 2 C153
   + C154 + 3 C155 + 3 C156 + C157 + C158 + 3 C159 >= 8.928689019222444
Bounds
 C0 <= 5
 C1 <= 5
 C2 <= 5
 C3 <= 5
 C4 <= 5
 C5 <= 5
 C6 <= 5
 C7 <= 5
 C8 <= 5
 C9 <= 5
 C10 <= 20
 C11 <= 20
 C12 <= 20
 C13 <= 20
 C14 <= 20
 C15 <= 20
 C16 <= 20
 C17 <= 20
 C18 <= 20
 C19 <= 20
 C20 <= 20
 C21 <= 20
 C22 <= 20
 C23 <= 20
 C24 <= 20
 C25 <= 20
 C26 <= 20
 C27 <= 20
 C28 <= 20
 C29 <= 20
 C30 <= 20
 C31 <= 20
 C32 <= 20
 C33 <= 20
 C34 <= 20
 C35 <= 20
 C36 <= 20
 C37 <= 20
 C38 <= 20
 C39 <= 20
 C40 <= 20
 C41 <= 20
 C42 <= 20
 C43 <= 20
 C44 <= 20
 C45 <= 20
 C46 <= 20
 C47 <= 20
 C48 <= 20
 C49 <= 20
 C50 <= 20
 C51 <= 20
 C52 <= 20
 C53 <= 20
 C54 <= 20
 C55 <= 20
 C56 <= 20
 C57 <= 20
 C58 <= 20
 C59 <= 20
 C60 <= 20
 C61 <= 20
 C62 <= 20
 C63 <= 20
 C64 <= 20
 C65 <= 20
 C66 <= 20
 C67 <= 20
 C68 <= 20
 C69 <= 20
 C70 <= 20
 C71 <= 20
 C72 <= 20
 C73 <= 20
 C74 <= 20
 C75 <= 20
 C76 <= 20
 C77 <= 20
 C78 <= 20
 C79 <= 20
 C80 <= 20
 C81 <= 20
 C82 <= 20
 C83 <= 20
 C84 <= 20
 C85 <= 20
 C86 <= 20
 C87 <= 20
 C88 <= 20
 C89 <= 20
 C90 <= 20
 C91 <= 20
 C92 <= 20
 C93 <= 20
 C94 <= 20
 C95 <= 20
 C96 <= 20
 C97 <= 20
 C98 <= 20
 C99 <= 20
 C100 <= 20
 C101 <= 20
 C102 <= 20
 C103 <= 20
 C104 <= 20
 C105 <= 20
 C106 <= 20
 C107 <= 20
 C108 <= 20
 C109 <= 20
 C110 <= 20
 C111 <= 20
 C112 <= 20
 C113 <= 20
 C114 <= 20
 C115 <= 20
 C116 <= 20
 C117 <= 20
 C118 <= 20
 C119 <= 20
 C120 <= 20
 C121 <= 20
 C122 <= 20
 C123 <= 20
 C124 <= 20
 C125 <= 20
 C126 <= 20
 C127 <= 20
 C128 <= 20
 C129 <= 20
 C130 <= 20
 C131 <= 20
 C132 <= 20
 C133 <= 20
 C134 <= 20
 C135 <= 20
 C136 <= 20
 C137 <= 20
 C138 <= 20
 C139 <= 20
 C140 <= 20
 C141 <= 20
 C142 <= 20
 C143 <= 20
 C144 <= 20
 C145 <= 20
 C146 <= 20
 C147 <= 20
 C148 <= 20
 C149 <= 20
 C150 <= 20
 C151 <= 20
 C152 <= 20
 C153 <= 20
 C154 <= 20
 C155 <= 20
 C156 <= 20
 C157 <= 20
 C158 <= 20
 C159 <= 20
Generals
 C0 C1 C2 C3 C4 C5 C6 C7 C8 C9 C10 C11 C12 C13 C14 C15 C16 C17 C18 C19 C20
 C21 C22 C23 C24 C25 C26 C27 C28 C29 C30 C31 C32 C33 C34 C35 C36 C37 C38
 C39 C40 C41 C42 C43 C44 C45 C46 C47 C48 C49 C50 C51 C52 C53 C54 C55 C56
 C57 C58 C59 C60 C61 C62 C63 C64 C65 C66 C67 C68 C69 C70 C71 C72 C73 C74
 C75 C76 C77 C78 C79 C80 C81 C82 C83 C84 C85 C86 C87 C88 C89 C90 C91 C92
 C93 C94 C95 C96 C97 C98 C99 C100 C101 C102 C103 C104 C105 C106 C107 C108
 C109 C110 C111 C112 C113 C114 C115 C116 C117 C118 C119 C120 C121 C122 C123
 C124 C125 C126 C127 C128 C129 C130 C131 C132 C133 C134 C135 C136 C137 C138
 C139 C140 C141 C142 C143 C144 C145 C146 C147 C148 C149 C150 C151 C152 C153
 C154 C155 C156 C157 C158 C159
End
